170
118
199
129
200
159
171
196
168
164
188
156
171
146
185
155
183
193
113
156
164
193
154
124
109
195
135
159
107
169
180
102
104
137
159
173
162
110
172
186
174
160
172
198
160
173
130
179
189
174
128
174
200
159
197
166
157
146
197
193
121
181
197
129
124
133
168
132
156
156
101
172
146
183
102
150
140
169
118
178
109
163
144
146
163
144
134
127
152
179
121
157
195
183
132
182
149
191
132
119
105
121
177
189
175
177
119
117
142
159
122
159
150
175
151
139
161
186
139
130
197
109
161
143
161
112
144
131
111
115
138
183
183
170
183
176
123
103
158
133
137
184
166
148
127
175
153
157
169
107
109
153
176
151
122
131
165
152
106
126
190
188
115
140
139
199
158
172
163
136
102
191
124
145
160
176
192
134
179
199
196
112
168
121
200
111
104
126
109
155
136
164
193
129
165
183
131
154
179
169
